# sample LAMMPS input script for thermal conductivity of SnSe
# Green-Kubo method via compute heat/flux and fix ave/correlate

# settings

variable	T equal 300

variable    p equal 200     # correlation length
variable    s equal 10      # sample interval
variable    d equal $p*$s   # dump interval

# setup problem

units		metal
atom_style	atomic
read_data SnSe.dat

velocity	all create $T 87287

pair_style	snap
pair_coeff * * SnSe.snapcoeff Se Sn  SnSe.snapparam Se Sn

neighbor	2.0 bin   # default value
neigh_modify	delay 0 every 1     #bulid neighbor list every timestep

# 1st equilibration run

fix		1 all nvt temp $T $T 0.5
thermo		1000
run		10000

velocity	all scale $T

unfix		1

# thermal conductivity calculation

reset_timestep  0

compute         myKE all ke/atom
compute         myPE all pe/atom
compute         myStress all stress/atom NULL virial
compute         flux all heat/flux myKE myPE myStress
variable        Jx equal c_flux[1]/vol
variable        Jy equal c_flux[2]/vol
variable        Jz equal c_flux[3]/vol

fix	            1 all nve
fix             JJ all ave/correlate $s $p $d &
                c_flux[1] c_flux[2] c_flux[3] type auto &
	        file profile.heatflux ave running

variable        scale equal $s*dt/$T/$T/vol
variable        k11 equal trap(f_JJ[3])*${scale}
variable        k22 equal trap(f_JJ[4])*${scale}
variable        k33 equal trap(f_JJ[5])*${scale}

thermo	        $d
thermo_style    custom step temp v_Jx v_Jy v_Jz v_k11 v_k22 v_k33

run             100000

variable        kappa equal (v_k11+v_k22+v_k33)/3.0
print           "running average conductivity: ${kappa}"
